c File: instances/26_0.40_1.col
c
c Description: Random graph of size 26 vertices and P(0.39999999999999997) of edges between any two vertices.
p col 26 325
e 1 15
e 1 21
e 1 23
e 1 24
e 1 26
e 2 3
e 2 5
e 2 6
e 2 7
e 2 9
e 2 10
e 2 12
e 2 13
e 2 14
e 2 18
e 2 19
e 2 20
e 2 22
e 2 25
e 3 4
e 3 7
e 3 9
e 3 10
e 3 11
e 3 13
e 3 14
e 3 17
e 3 19
e 3 22
e 4 5
e 4 7
e 4 9
e 4 13
e 4 14
e 4 18
e 4 19
e 4 20
e 4 21
e 4 22
e 5 6
e 5 7
e 5 8
e 5 10
e 5 11
e 5 13
e 5 15
e 5 16
e 5 17
e 5 18
e 5 19
e 5 20
e 5 22
e 5 24
e 5 25
e 6 8
e 6 10
e 6 12
e 6 17
e 6 18
e 6 22
e 6 23
e 6 25
e 6 26
e 7 8
e 7 9
e 7 16
e 7 17
e 7 18
e 7 21
e 7 23
e 7 25
e 7 26
e 8 9
e 8 16
e 8 19
e 8 20
e 8 21
e 8 23
e 8 25
e 9 15
e 9 17
e 9 20
e 9 21
e 9 22
e 9 23
e 9 26
e 10 11
e 10 14
e 10 16
e 10 18
e 10 21
e 10 25
e 11 12
e 11 13
e 11 23
e 11 26
e 12 13
e 12 17
e 12 18
e 12 21
e 12 24
e 12 25
e 13 14
e 13 15
e 13 16
e 13 22
e 13 23
e 13 25
e 14 16
e 14 19
e 14 20
e 14 21
e 14 25
e 15 16
e 15 18
e 15 19
e 15 20
e 15 21
e 15 22
e 15 24
e 15 25
e 16 19
e 16 21
e 16 22
e 16 23
e 16 25
e 17 20
e 17 21
e 17 22
e 17 24
e 17 25
e 18 20
e 19 24
e 20 21
e 20 26
e 21 22
e 22 24
e 22 25
e 23 26
e 24 26
e 25 26